<number of tasks>
20

<cycle time>
1000

<order strength>
0,5


<task times>
1 169
2 156
3 264
4 134
5 88
6 72
7 75
8 114
9 307
10 96
11 89
12 172
13 118
14 79
15 100
16 196
17 121
18 92
19 144
20 291

<precedence relations>
1,11
2,3
2,4
2,5
2,6
2,7
3,11
4,11
6,8
6,10
7,9
7,17
8,11
10,11
10,12
11,13
11,14
11,15
11,16
11,17
12,18
13,20
14,18
14,19
14,20
16,18
16,20
17,19

<end>
